32	0

0	1	2
10	1	3
8	1	4
9	1	5
1	1	6
4	1	7
6	1	8
9	1	9
5	1	10
9	1	11
8	1	12
4	1	13
9	1	14
3	1	15
4	1	16
2	1	17
2	1	18
10	1	19
5	1	20
9	1	21
10	1	22
2	1	23
7	1	24
5	1	25
6	1	26
8	1	27
7	1	28
5	1	29
4	1	30
4	1	31
3	1	32
0	0
